14° run output:
{
    "Function": "kroA1000.tsp",
    "Problem dimension": [
        249,
        21,
        359,
        23,
        76,
        334,
        147,
        193,
        47,
        872,
        978,
        103,
        986,
        386,
        262,
        552,
        201,
        756,
        226,
        808,
        301,
        281,
        635,
        5,
        423,
        69,
        153,
        15,
        695,
        950,
        848,
        289,
        437,
        545,
        11,
        939,
        493,
        535,
        733,
        660,
        611,
        130,
        601,
        444,
        782,
        595,
        781,
        857,
        184,
        643,
        362,
        38,
        354,
        472,
        796,
        16,
        132,
        494,
        697,
        935,
        887,
        678,
        453,
        967,
        934,
        517,
        955,
        777,
        633,
        819,
        880,
        63,
        401,
        110,
        460,
        587,
        845,
        567,
        565,
        462,
        772,
        910,
        491,
        224,
        83,
        314,
        688,
        942,
        152,
        439,
        977,
        36,
        75,
        629,
        516,
        949,
        964,
        137,
        827,
        888,
        155,
        283,
        510,
        896,
        598,
        788,
        417,
        124,
        221,
        166,
        256,
        779,
        869,
        613,
        485,
        958,
        200,
        818,
        546,
        293,
        900,
        523,
        500,
        92,
        767,
        325,
        679,
        861,
        72,
        176,
        843,
        435,
        575,
        190,
        445,
        884,
        133,
        991,
        582,
        855,
        492,
        186,
        418,
        634,
        17,
        25,
        641,
        187,
        615,
        45,
        975,
        995,
        740,
        732,
        619,
        140,
        128,
        812,
        800,
        412,
        795,
        185,
        597,
        914,
        220,
        770,
        576,
        246,
        398,
        716,
        646,
        388,
        163,
        645,
        607,
        328,
        868,
        208,
        809,
        114,
        924,
        390,
        694,
        391,
        993,
        320,
        361,
        183,
        746,
        630,
        66,
        305,
        921,
        761,
        146,
        363,
        376,
        240,
        8,
        327,
        29,
        648,
        879,
        573,
        414,
        452,
        477,
        322,
        251,
        81,
        218,
        972,
        933,
        820,
        851,
        253,
        465,
        527,
        844,
        222,
        108,
        223,
        308,
        340,
        22,
        791,
        10,
        84,
        384,
        123,
        43,
        329,
        557,
        755,
        285,
        489,
        531,
        378,
        65,
        870,
        158,
        969,
        406,
        893,
        372,
        874,
        241,
        814,
        639,
        943,
        14,
        737,
        116,
        377,
        68,
        209,
        276,
        965,
        343,
        505,
        382,
        838,
        726,
        473,
        790,
        165,
        287,
        842,
        957,
        35,
        503,
        91,
        529,
        97,
        350,
        568,
        524,
        317,
        968,
        824,
        353,
        364,
        456,
        992,
        931,
        242,
        731,
        760,
        683,
        342,
        284,
        131,
        609,
        255,
        829,
        490,
        514,
        31,
        95,
        337,
        528,
        822,
        953,
        909,
        474,
        156,
        366,
        454,
        160,
        680,
        407,
        237,
        227,
        889,
        617,
        82,
        33,
        274,
        522,
        956,
        849,
        112,
        496,
        396,
        335,
        333,
        79,
        438,
        823,
        727,
        172,
        252,
        90,
        577,
        290,
        419,
        310,
        997,
        519,
        916,
        962,
        345,
        40,
        642,
        627,
        584,
        27,
        899,
        495,
        583,
        711,
        758,
        681,
        469,
        71,
        470,
        980,
        3,
        58,
        599,
        655,
        243,
        867,
        202,
        380,
        177,
        294,
        307,
        434,
        789,
        39,
        608,
        150,
        902,
        104,
        267,
        182,
        89,
        586,
        689,
        742,
        117,
        484,
        623,
        476,
        367,
        614,
        303,
        700,
        875,
        379,
        247,
        894,
        315,
        764,
        466,
        119,
        431,
        982,
        705,
        717,
        203,
        973,
        216,
        118,
        785,
        313,
        521,
        676,
        478,
        913,
        828,
        882,
        981,
        696,
        347,
        534,
        171,
        235,
        129,
        450,
        488,
        138,
        467,
        897,
        652,
        798,
        811,
        189,
        990,
        656,
        441,
        371,
        749,
        654,
        938,
        225,
        840,
        312,
        383,
        536,
        506,
        853,
        747,
        864,
        46,
        397,
        508,
        574,
        451,
        837,
        816,
        549,
        715,
        996,
        774,
        106,
        502,
        424,
        299,
        302,
        658,
        513,
        215,
        20,
        569,
        605,
        762,
        940,
        985,
        53,
        836,
        433,
        446,
        413,
        810,
        144,
        625,
        55,
        358,
        671,
        724,
        52,
        236,
        440,
        498,
        946,
        620,
        512,
        669,
        463,
        111,
        365,
        804,
        297,
        925,
        204,
        507,
        854,
        230,
        169,
        720,
        730,
        920,
        719,
        127,
        670,
        85,
        239,
        905,
        551,
        930,
        394,
        430,
        753,
        547,
        99,
        268,
        483,
        883,
        686,
        30,
        690,
        427,
        580,
        352,
        684,
        87,
        556,
        264,
        741,
        878,
        898,
        558,
        766,
        698,
        385,
        403,
        134,
        651,
        802,
        408,
        368,
        628,
        402,
        468,
        947,
        682,
        526,
        550,
        543,
        198,
        515,
        763,
        257,
        856,
        998,
        877,
        125,
        826,
        373,
        174,
        44,
        205,
        96,
        375,
        600,
        702,
        248,
        618,
        873,
        404,
        778,
        960,
        245,
        306,
        217,
        541,
        164,
        685,
        141,
        707,
        37,
        765,
        120,
        326,
        915,
        436,
        988,
        786,
        504,
        954,
        442,
        666,
        323,
        708,
        979,
        70,
        799,
        304,
        432,
        409,
        936,
        292,
        638,
        199,
        518,
        771,
        734,
        416,
        725,
        212,
        105,
        860,
        9,
        381,
        961,
        487,
        927,
        984,
        649,
        714,
        195,
        830,
        647,
        254,
        603,
        497,
        275,
        6,
        122,
        710,
        807,
        581,
        279,
        674,
        723,
        73,
        421,
        318,
        701,
        54,
        825,
        966,
        588,
        330,
        721,
        659,
        621,
        994,
        331,
        862,
        88,
        459,
        699,
        533,
        653,
        757,
        34,
        903,
        745,
        987,
        109,
        173,
        420,
        93,
        748,
        735,
        738,
        752,
        180,
        631,
        486,
        113,
        181,
        393,
        917,
        59,
        912,
        783,
        542,
        213,
        429,
        191,
        167,
        270,
        585,
        592,
        18,
        530,
        300,
        41,
        4,
        219,
        143,
        234,
        963,
        288,
        548,
        754,
        976,
        48,
        941,
        13,
        501,
        324,
        780,
        668,
        19,
        339,
        61,
        94,
        261,
        67,
        847,
        895,
        624,
        974,
        911,
        374,
        640,
        775,
        405,
        348,
        24,
        563,
        590,
        664,
        77,
        206,
        0,
        792,
        196,
        622,
        341,
        286,
        162,
        704,
        448,
        806,
        561,
        511,
        729,
        555,
        273,
        632,
        151,
        554,
        918,
        677,
        298,
        295,
        952,
        1,
        713,
        948,
        970,
        449,
        610,
        426,
        395,
        136,
        908,
        258,
        332,
        422,
        482,
        161,
        457,
        100,
        863,
        179,
        265,
        410,
        835,
        832,
        336,
        229,
        728,
        532,
        594,
        787,
        929,
        356,
        687,
        945,
        175,
        579,
        602,
        675,
        57,
        881,
        662,
        277,
        211,
        904,
        443,
        885,
        351,
        989,
        839,
        637,
        188,
        2,
        865,
        606,
        937,
        691,
        703,
        562,
        157,
        971,
        60,
        644,
        266,
        280,
        170,
        833,
        520,
        773,
        759,
        210,
        852,
        922,
        846,
        207,
        399,
        168,
        672,
        311,
        7,
        148,
        121,
        776,
        62,
        831,
        126,
        559,
        657,
        428,
        499,
        145,
        461,
        612,
        154,
        107,
        525,
        321,
        319,
        926,
        540,
        142,
        923,
        480,
        338,
        49,
        578,
        891,
        564,
        178,
        928,
        692,
        858,
        983,
        74,
        673,
        481,
        821,
        596,
        560,
        135,
        400,
        901,
        86,
        693,
        892,
        159,
        231,
        537,
        233,
        539,
        570,
        102,
        591,
        650,
        475,
        906,
        194,
        349,
        271,
        411,
        544,
        26,
        805,
        238,
        736,
        919,
        866,
        355,
        263,
        272,
        56,
        841,
        316,
        471,
        907,
        794,
        553,
        793,
        538,
        282,
        959,
        32,
        572,
        890,
        479,
        51,
        28,
        101,
        387,
        665,
        78,
        886,
        951,
        718,
        464,
        797,
        309,
        813,
        932,
        589,
        616,
        296,
        259,
        768,
        667,
        425,
        834,
        663,
        626,
        801,
        571,
        192,
        244,
        739,
        250,
        42,
        509,
        115,
        415,
        769,
        455,
        64,
        260,
        751,
        369,
        661,
        815,
        817,
        98,
        80,
        139,
        346,
        999,
        392,
        722,
        389,
        593,
        871,
        357,
        784,
        706,
        291,
        944,
        447,
        743,
        604,
        850,
        360,
        50,
        803,
        232,
        744,
        458,
        709,
        636,
        712,
        149,
        197,
        269,
        12,
        750,
        344,
        278,
        214,
        228,
        566,
        876,
        859,
        370
    ],
    "Global Optimum": 0,
    "Algorithm": "Genetic algorithm",
    "Parameters": {
        "population": 30,
        "offspring": 30,
        "mutation probability": 0.001,
        "crossover probability": 0.9
    },
    "Fitness": 1303281,
    "Solution": [
        249,
        21,
        359,
        23,
        76,
        334,
        147,
        193,
        47,
        872,
        978,
        103,
        986,
        386,
        262,
        552,
        201,
        756,
        226,
        808,
        301,
        281,
        635,
        5,
        423,
        69,
        153,
        15,
        695,
        950,
        848,
        289,
        437,
        545,
        11,
        939,
        493,
        535,
        733,
        660,
        611,
        130,
        601,
        444,
        782,
        595,
        781,
        857,
        184,
        643,
        362,
        38,
        354,
        472,
        796,
        16,
        132,
        494,
        697,
        935,
        887,
        678,
        453,
        967,
        934,
        517,
        955,
        777,
        633,
        819,
        880,
        63,
        401,
        110,
        460,
        587,
        845,
        567,
        565,
        462,
        772,
        910,
        491,
        224,
        83,
        314,
        688,
        942,
        152,
        439,
        977,
        36,
        75,
        629,
        516,
        949,
        964,
        137,
        827,
        888,
        155,
        283,
        510,
        896,
        598,
        788,
        417,
        124,
        221,
        166,
        256,
        779,
        869,
        613,
        485,
        958,
        200,
        818,
        546,
        293,
        900,
        523,
        500,
        92,
        767,
        325,
        679,
        861,
        72,
        176,
        843,
        435,
        575,
        190,
        445,
        884,
        133,
        991,
        582,
        855,
        492,
        186,
        418,
        634,
        17,
        25,
        641,
        187,
        615,
        45,
        975,
        995,
        740,
        732,
        619,
        140,
        128,
        812,
        800,
        412,
        795,
        185,
        597,
        914,
        220,
        770,
        576,
        246,
        398,
        716,
        646,
        388,
        163,
        645,
        607,
        328,
        868,
        208,
        809,
        114,
        924,
        390,
        694,
        391,
        993,
        320,
        361,
        183,
        746,
        630,
        66,
        305,
        921,
        761,
        146,
        363,
        376,
        240,
        8,
        327,
        29,
        648,
        879,
        573,
        414,
        452,
        477,
        322,
        251,
        81,
        218,
        972,
        933,
        820,
        851,
        253,
        465,
        527,
        844,
        222,
        108,
        223,
        308,
        340,
        22,
        791,
        10,
        84,
        384,
        123,
        43,
        329,
        557,
        755,
        285,
        489,
        531,
        378,
        65,
        870,
        158,
        969,
        406,
        893,
        372,
        874,
        241,
        814,
        639,
        943,
        14,
        737,
        116,
        377,
        68,
        209,
        276,
        965,
        343,
        505,
        382,
        838,
        726,
        473,
        790,
        165,
        287,
        842,
        957,
        35,
        503,
        91,
        529,
        97,
        350,
        568,
        524,
        317,
        968,
        824,
        353,
        364,
        456,
        992,
        931,
        242,
        731,
        760,
        683,
        342,
        284,
        131,
        609,
        255,
        829,
        490,
        514,
        31,
        95,
        337,
        528,
        822,
        953,
        909,
        474,
        156,
        366,
        454,
        160,
        680,
        407,
        237,
        227,
        889,
        617,
        82,
        33,
        274,
        522,
        956,
        849,
        112,
        496,
        396,
        335,
        333,
        79,
        438,
        823,
        727,
        172,
        252,
        90,
        577,
        290,
        419,
        310,
        997,
        519,
        916,
        962,
        345,
        40,
        642,
        627,
        584,
        27,
        899,
        495,
        583,
        711,
        758,
        681,
        469,
        71,
        470,
        980,
        3,
        58,
        599,
        655,
        243,
        867,
        202,
        380,
        177,
        294,
        307,
        434,
        789,
        39,
        608,
        150,
        902,
        104,
        267,
        182,
        89,
        586,
        689,
        742,
        117,
        484,
        623,
        476,
        367,
        614,
        303,
        700,
        875,
        379,
        247,
        894,
        315,
        764,
        466,
        119,
        431,
        982,
        705,
        717,
        203,
        973,
        216,
        118,
        785,
        313,
        521,
        676,
        478,
        913,
        828,
        882,
        981,
        696,
        347,
        534,
        171,
        235,
        129,
        450,
        488,
        138,
        467,
        897,
        652,
        798,
        811,
        189,
        990,
        656,
        441,
        371,
        749,
        654,
        938,
        225,
        840,
        312,
        383,
        536,
        506,
        853,
        747,
        864,
        46,
        397,
        508,
        574,
        451,
        837,
        816,
        549,
        715,
        996,
        774,
        106,
        502,
        424,
        299,
        302,
        658,
        513,
        215,
        20,
        569,
        605,
        762,
        940,
        985,
        53,
        836,
        433,
        446,
        413,
        810,
        144,
        625,
        55,
        358,
        671,
        724,
        52,
        236,
        440,
        498,
        946,
        620,
        512,
        669,
        463,
        111,
        365,
        804,
        297,
        925,
        204,
        507,
        854,
        230,
        169,
        720,
        730,
        920,
        719,
        127,
        670,
        85,
        239,
        905,
        551,
        930,
        394,
        430,
        753,
        547,
        99,
        268,
        483,
        883,
        686,
        30,
        690,
        427,
        580,
        352,
        684,
        87,
        556,
        264,
        741,
        878,
        898,
        558,
        766,
        698,
        385,
        403,
        134,
        651,
        802,
        408,
        368,
        628,
        402,
        468,
        947,
        682,
        526,
        550,
        543,
        198,
        515,
        763,
        257,
        856,
        998,
        877,
        125,
        826,
        373,
        174,
        44,
        205,
        96,
        375,
        600,
        702,
        248,
        618,
        873,
        404,
        778,
        960,
        245,
        306,
        217,
        541,
        164,
        685,
        141,
        707,
        37,
        765,
        120,
        326,
        915,
        436,
        988,
        786,
        504,
        954,
        442,
        666,
        323,
        708,
        979,
        70,
        799,
        304,
        432,
        409,
        936,
        292,
        638,
        199,
        518,
        771,
        734,
        416,
        725,
        212,
        105,
        860,
        9,
        381,
        961,
        487,
        927,
        984,
        649,
        714,
        195,
        830,
        647,
        254,
        603,
        497,
        275,
        6,
        122,
        710,
        807,
        581,
        279,
        674,
        723,
        73,
        421,
        318,
        701,
        54,
        825,
        966,
        588,
        330,
        721,
        659,
        621,
        994,
        331,
        862,
        88,
        459,
        699,
        533,
        653,
        757,
        34,
        903,
        745,
        987,
        109,
        173,
        420,
        93,
        748,
        735,
        738,
        752,
        180,
        631,
        486,
        113,
        181,
        393,
        917,
        59,
        912,
        783,
        542,
        213,
        429,
        191,
        167,
        270,
        585,
        592,
        18,
        530,
        300,
        41,
        4,
        219,
        143,
        234,
        963,
        288,
        548,
        754,
        976,
        48,
        941,
        13,
        501,
        324,
        780,
        668,
        19,
        339,
        61,
        94,
        261,
        67,
        847,
        895,
        624,
        974,
        911,
        374,
        640,
        775,
        405,
        348,
        24,
        563,
        590,
        664,
        77,
        206,
        0,
        792,
        196,
        622,
        341,
        286,
        162,
        704,
        448,
        806,
        561,
        511,
        729,
        555,
        273,
        632,
        151,
        554,
        918,
        677,
        298,
        295,
        952,
        1,
        713,
        948,
        970,
        449,
        610,
        426,
        395,
        136,
        908,
        258,
        332,
        422,
        482,
        161,
        457,
        100,
        863,
        179,
        265,
        410,
        835,
        832,
        336,
        229,
        728,
        532,
        594,
        787,
        929,
        356,
        687,
        945,
        175,
        579,
        602,
        675,
        57,
        881,
        662,
        277,
        211,
        904,
        443,
        885,
        351,
        989,
        839,
        637,
        188,
        2,
        865,
        606,
        937,
        691,
        703,
        562,
        157,
        971,
        60,
        644,
        266,
        280,
        170,
        833,
        520,
        773,
        759,
        210,
        852,
        922,
        846,
        207,
        399,
        168,
        672,
        311,
        7,
        148,
        121,
        776,
        62,
        831,
        126,
        559,
        657,
        428,
        499,
        145,
        461,
        612,
        154,
        107,
        525,
        321,
        319,
        926,
        540,
        142,
        923,
        480,
        338,
        49,
        578,
        891,
        564,
        178,
        928,
        692,
        858,
        983,
        74,
        673,
        481,
        821,
        596,
        560,
        135,
        400,
        901,
        86,
        693,
        892,
        159,
        231,
        537,
        233,
        539,
        570,
        102,
        591,
        650,
        475,
        906,
        194,
        349,
        271,
        411,
        544,
        26,
        805,
        238,
        736,
        919,
        866,
        355,
        263,
        272,
        56,
        841,
        316,
        471,
        907,
        794,
        553,
        793,
        538,
        282,
        959,
        32,
        572,
        890,
        479,
        51,
        28,
        101,
        387,
        665,
        78,
        886,
        951,
        718,
        464,
        797,
        309,
        813,
        932,
        589,
        616,
        296,
        259,
        768,
        667,
        425,
        834,
        663,
        626,
        801,
        571,
        192,
        244,
        739,
        250,
        42,
        509,
        115,
        415,
        769,
        455,
        64,
        260,
        751,
        369,
        661,
        815,
        817,
        98,
        80,
        139,
        346,
        999,
        392,
        722,
        389,
        593,
        871,
        357,
        784,
        706,
        291,
        944,
        447,
        743,
        604,
        850,
        360,
        50,
        803,
        232,
        744,
        458,
        709,
        636,
        712,
        149,
        197,
        269,
        12,
        750,
        344,
        278,
        214,
        228,
        566,
        876,
        859,
        370
    ],
    "Nb of functions evaluations": 400020,
    "Computational time in seconds": 5786.511251926422,
    "Stopping criterion in evaluations": 400000
}